; ISZERO ISZERO ISZERO => ISZERO
(set-option :produce-proofs true)
; 
(set-info :status unknown)
(declare-fun storage_t ((_ BitVec 256) Int (_ BitVec 256)) (_ BitVec 256))
(declare-fun storage_s ((_ BitVec 256) Int (_ BitVec 256)) (_ BitVec 256))
(declare-fun exc_halt_t (Int) Bool)
(declare-fun exc_halt_s (Int) Bool)
(declare-fun sc_t (Int) (_ BitVec 6))
(declare-fun stack_t ((_ BitVec 256) Int (_ BitVec 6)) (_ BitVec 256))
(declare-fun stack_s ((_ BitVec 256) Int (_ BitVec 6)) (_ BitVec 256))
(declare-fun sc_s (Int) (_ BitVec 6))
(declare-fun used_gas_t ((_ BitVec 256) Int) Int)
(declare-fun used_gas_s ((_ BitVec 256) Int) Int)
(assert
 (exists ((x_0 (_ BitVec 256)) )(let (($x9870 (forall ((w (_ BitVec 256)) )(let ((?x4688 (storage_t x_0 1 w)))
 (let ((?x3333 (storage_s x_0 3 w)))
 (= ?x3333 ?x4688))))
 ))
 (let (($x3751 (exc_halt_t 1)))
 (let (($x8103 (exc_halt_s 3)))
 (let (($x2610 (= $x8103 $x3751)))
 (let (($x10190 (forall ((n (_ BitVec 6)) )(let ((?x2459 (sc_t 1)))
 (let (($x5085 (bvsle ?x2459 n)))
 (let ((?x11847 (stack_t x_0 1 n)))
 (let ((?x769 (stack_s x_0 3 n)))
 (let (($x2662 (= ?x769 ?x11847)))
 (or $x2662 $x5085)))))))
 ))
 (let ((?x2459 (sc_t 1)))
 (let ((?x3851 (sc_s 3)))
 (let (($x3197 (= ?x3851 ?x2459)))
 (let ((?x5056 (used_gas_t x_0 0)))
 (let ((?x8540 (used_gas_s x_0 0)))
 (let (($x5711 (= ?x8540 ?x5056)))
 (let (($x3357 (forall ((w (_ BitVec 256)) )(let ((?x3355 (storage_t x_0 0 w)))
 (let ((?x10955 (storage_s x_0 0 w)))
 (= ?x10955 ?x3355))))
 ))
 (let (($x56 (exc_halt_t 0)))
 (let (($x57 (exc_halt_s 0)))
 (let (($x58 (= $x57 $x56)))
 (let (($x7418 (forall ((n (_ BitVec 6)) )(let ((?x7908 (stack_t x_0 0 n)))
 (let ((?x8152 (stack_s x_0 0 n)))
 (let (($x8902 (= ?x8152 ?x7908)))
 (let ((?x63 (sc_t 0)))
 (let (($x6494 (bvsle ?x63 n)))
 (or $x6494 $x8902)))))))
 ))
 (let ((?x63 (sc_t 0)))
 (let ((?x72 (sc_s 0)))
 (let (($x73 (= ?x72 ?x63)))
 (let (($x1171 (forall ((w (_ BitVec 256)) )(let ((?x3355 (storage_t x_0 0 w)))
 (let ((?x4688 (storage_t x_0 1 w)))
 (= ?x4688 ?x3355))))
 ))
 (let (($x7078 (forall ((n (_ BitVec 6)) )(let ((?x63 (sc_t 0)))
 (let ((?x7767 (bvadd (_ bv63 6) ?x63)))
 (let (($x9852 (bvsle ?x7767 n)))
 (or (= (stack_t x_0 1 n) (stack_t x_0 0 n)) $x9852)))))
 ))
 (let (($x6581 (= (stack_t x_0 1 (bvadd (_ bv63 6) ?x2459)) (ite (= (stack_t x_0 0 (bvadd (_ bv63 6) ?x63)) (_ bv0 256)) (_ bv1 256) (_ bv0 256)))))
 (let (($x6697 (= $x8103 (or (exc_halt_s 2) (not (bvsle (_ bv0 6) (bvadd (_ bv63 6) (sc_s 2))))))))
 (let (($x8746 (forall ((w (_ BitVec 256)) )(let ((?x11501 (storage_s x_0 2 w)))
 (let ((?x3333 (storage_s x_0 3 w)))
 (= ?x3333 ?x11501))))
 ))
 (let (($x9156 (forall ((n (_ BitVec 6)) )(let ((?x2272 (sc_s 2)))
 (let ((?x8323 (bvadd (_ bv63 6) ?x2272)))
 (let (($x10791 (bvsle ?x8323 n)))
 (or (= (stack_s x_0 3 n) (stack_s x_0 2 n)) $x10791)))))
 ))
 (let ((?x2272 (sc_s 2)))
 (let (($x3613 (= ?x3851 ?x2272)))
 (let (($x7682 (= (stack_s x_0 3 (bvadd (_ bv63 6) ?x3851)) (ite (= (stack_s x_0 2 (bvadd (_ bv63 6) ?x2272)) (_ bv0 256)) (_ bv1 256) (_ bv0 256)))))
 (let (($x10052 (exc_halt_s 2)))
 (let (($x8806 (= $x10052 (or (exc_halt_s 1) (not (bvsle (_ bv0 6) (bvadd (_ bv63 6) (sc_s 1))))))))
 (let (($x3165 (forall ((w (_ BitVec 256)) )(let ((?x9310 (storage_s x_0 1 w)))
 (let ((?x11501 (storage_s x_0 2 w)))
 (= ?x11501 ?x9310))))
 ))
 (let (($x9883 (forall ((n (_ BitVec 6)) )(or (bvsle (bvadd (_ bv63 6) (sc_s 1)) n) (= (stack_s x_0 2 n) (stack_s x_0 1 n))))
 ))
 (let ((?x154 (sc_s 1)))
 (let (($x3652 (= ?x2272 ?x154)))
 (let ((?x8323 (bvadd (_ bv63 6) ?x2272)))
 (let ((?x2184 (stack_s x_0 2 ?x8323)))
 (let (($x4241 (= ?x2184 (ite (= (stack_s x_0 1 (bvadd (_ bv63 6) ?x154)) (_ bv0 256)) (_ bv1 256) (_ bv0 256)))))
 (let (($x2774 (forall ((w (_ BitVec 256)) )(let ((?x10955 (storage_s x_0 0 w)))
 (let ((?x9310 (storage_s x_0 1 w)))
 (= ?x9310 ?x10955))))
 ))
 (let (($x266 (forall ((n (_ BitVec 6)) )(or (= (stack_s x_0 1 n) (stack_s x_0 0 n)) (bvsle (bvadd (_ bv63 6) (sc_s 0)) n)))
 ))
 (let (($x3542 (= ?x154 ?x72)))
 (let ((?x3331 (bvadd (_ bv63 6) ?x154)))
 (let ((?x3981 (stack_s x_0 1 ?x3331)))
 (let (($x2222 (= ?x3981 (ite (= (stack_s x_0 0 (bvadd (_ bv63 6) ?x72)) (_ bv0 256)) (_ bv1 256) (_ bv0 256)))))
 (let (($x9330 (forall ((w (_ BitVec 256)) )(let ((?x10955 (storage_s x_0 0 w)))
 (= ?x10955 (_ bv0 256))))
 ))
 (let (($x10383 (= ?x8540 0)))
 (let (($x8061 (not $x57)))
 (let (($x8127 (= (stack_s x_0 0 (_ bv0 6)) x_0)))
 (let (($x7461 (= ?x72 (_ bv1 6))))
 (and $x7461 $x8127 $x8061 $x10383 $x9330 $x2222 (= (used_gas_s x_0 1) (+ 3 ?x8540)) $x3542 $x266 $x2774 (= (exc_halt_s 1) (or $x57 (not (bvsle (_ bv0 6) (bvadd (_ bv63 6) ?x72))))) $x4241 (= (used_gas_s x_0 2) (+ 3 (used_gas_s x_0 1))) $x3652 $x9883 $x3165 $x8806 $x7682 (= (used_gas_s x_0 3) (+ 3 (used_gas_s x_0 2))) $x3613 $x9156 $x8746 $x6697 $x6581 (= (used_gas_t x_0 1) (+ 3 ?x5056)) (= ?x2459 ?x63) $x7078 $x1171 (= $x3751 (or $x56 (not (bvsle (_ bv0 6) (bvadd (_ bv63 6) ?x63))))) $x73 $x7418 $x58 $x3357 $x5711 (not (and $x3197 $x10190 $x2610 $x9870))))))))))))))))))))))))))))))))))))))))))))))))))))
 )
(check-sat)
(get-proof)
